NAME : H-n6-k1
COMMENT : (Hackathon EMTU)
TYPE : CVRP
DIMENSION : 6
EDGE_WEIGHT_TYPE : EUC_2D
CAPACITY : 10000
NODE_COORD_SECTION
1 -23.94558425633751 -46.33003656431143
2 -23.99606073744142 -46.408964285664695
3 -23.916213844752505 -46.284612890847285
4 -23.99634619050117 -46.408830682247945
5 -23.960056806515922 -46.33178817216458
6 -23.952915154925783 -46.33128453628281
DEMAND_SECTION
1 02 1
3 1
4 1
5 1
6 1
DEPOT_SECTION
1
-1
EOF